 # Version information for this restart file 
 # current date 2025-07-18 12:42:51.504
 # current working dir /scratch/x_satyanb/CCDC_NEW_2071_MOFs_ODAC_OPT/DFT_CALCULATIONS_with_CP2K_90MOFs/WATER_CALCULATIONS/MORE_CUTOFF/OPTIMIZATION_MOF_WATER/widom_qmof-a9be673_mepoml-geo_opt_odac_H2O-PBE_e_min-opt_0005
 # Program compiled at                           Mon 02 Sep 2024 11:42:40 PM +03
 # Program compiled on                                                       ln2
 # Program compiled for                                                    local
 # Source code revision number                                       git:65cca6c
 &GLOBAL
   PRINT_LEVEL LOW
   PROJECT_NAME "widom_qmof-a9be673_mepoml-geo_opt_odac_H2O-PBE_e_min-opt_0005"
   RUN_TYPE GEO_OPT
 &END GLOBAL
 &MOTION
   &GEO_OPT
     OPTIMIZER BFGS
     MAX_ITER 999
     MAX_DR  2.0000000000000001E-004
     MAX_FORCE  2.0000000000000001E-004
     RMS_DR  2.0000000000000001E-004
     RMS_FORCE  2.0000000000000001E-004
     STEP_START_VAL 36
     &BFGS
       TRUST_RADIUS  1.0000000000000001E-001
     &END BFGS
   &END GEO_OPT
   &PRINT
     &TRAJECTORY SILENT
       FILENAME geo_opt_traj
       FORMAT PDB
     &END TRAJECTORY
     &RESTART SILENT
       &EACH
         GEO_OPT 1
       &END EACH
     &END RESTART
   &END PRINT
 &END MOTION
 &FORCE_EVAL
   METHOD QS
   STRESS_TENSOR ANALYTICAL
   &DFT
     BASIS_SET_FILE_NAME BASIS_MOLOPT
     POTENTIAL_FILE_NAME GTH_POTENTIALS
     UKS F
     MULTIPLICITY 1
     CHARGE 0
     &SCF
       MAX_SCF 500
       EPS_SCF  9.9999999999999995E-007
       SCF_GUESS RESTART
       &OT T
         MINIMIZER DIIS
         SAFE_DIIS T
         PRECONDITIONER FULL_KINETIC
         ENERGY_GAP  1.0000000000000000E-003
       &END OT
       &OUTER_SCF T
         EPS_SCF  9.9999999999999995E-007
         MAX_SCF 500
       &END OUTER_SCF
     &END SCF
     &QS
       EPS_DEFAULT  9.9999999999999998E-013
       EXTRAPOLATION ASPC
       METHOD GPW
     &END QS
     &MGRID
       NGRIDS 4
       CUTOFF  4.5000000000000000E+002
       REL_CUTOFF  5.0000000000000000E+001
     &END MGRID
     &XC
       DENSITY_CUTOFF  1.0000000000000000E-010
       GRADIENT_CUTOFF  1.0000000000000000E-010
       TAU_CUTOFF  1.0000000000000000E-010
       &XC_FUNCTIONAL NO_SHORTCUT
         &PBE T
         &END PBE
       &END XC_FUNCTIONAL
       &VDW_POTENTIAL
         POTENTIAL_TYPE PAIR_POTENTIAL
         &PAIR_POTENTIAL
           R_CUTOFF  1.2000000000000000E+001
           TYPE DFTD3
           PARAMETER_FILE_NAME dftd3.dat
           REFERENCE_FUNCTIONAL "PBE"
           EPS_CN  1.0000000000000000E-002
           CALCULATE_C9_TERM T
           LONG_RANGE_CORRECTION T
           SHORT_RANGE_CORRECTION T
         &END PAIR_POTENTIAL
       &END VDW_POTENTIAL
     &END XC
     &POISSON
       PERIODIC XYZ
     &END POISSON
   &END DFT
   &SUBSYS
     &CELL
       A  6.6900000000000004E+000  0.0000000000000000E+000  0.0000000000000000E+000
       B -2.1928105341660253E+000  1.0875128411253382E+001  0.0000000000000000E+000
       C  0.0000000000000000E+000  0.0000000000000000E+000  1.3167999999999999E+001
       MULTIPLE_UNIT_CELL 1 1 1
     &END CELL
     &COORD
       Al1  3.3526328534448977E+000  3.1836281544734363E-002  6.5576291275172629E+000
       Al2  5.5594017369510622E+000  5.4214644571458859E+000  2.3893673904325622E-002
       Al3  3.0750729194385241E-002  6.1477337460244866E-004  6.5513624030749229E+000
       Al4  2.2112458153302010E+000  5.4534660745825576E+000  1.5213642313234108E-002
       H1  1.8052402964420398E+000  7.9431027199286568E+000  9.7938880669257991E+000
       H2  4.9207770575062462E+000  8.3591632510326601E+000  3.2153308576726825E+000
       H3  2.6662795240550130E+000  2.9531537482094476E+000  3.3195624158028258E+000
       H4 -4.5608483898181096E-001  2.4695902815587480E+000  9.9649310087416936E+000
       H5  4.8762032694427706E+000  8.0837828999437473E+000  9.7104271606848904E+000
       H6  1.8519768752534975E+000  8.2058065986968831E+000  3.1464921752803092E+000
       H7 -3.9864293396793843E-001  2.7849684466364657E+000  3.4773023565565300E+000
       H8  2.6063902764696998E+000  2.6940130683867545E+000  1.0006185216574364E+001
       H9 -4.8145945444074834E-001  9.1249419243070875E+000  6.4734839490608413E+000
       H10  5.1272943974242935E-001  7.0442859606665236E+000  1.2538573158335529E+001
       H11  5.0515321691802706E+000  1.6768920746536307E+000  7.0696964925328025E+000
       H12  3.8685422946645449E+000  3.7351671582719588E+000  1.2862973351762140E+001
       C1  2.7985966712203094E+000  9.1599778617197369E+000  8.2828023131174700E+000
       C2  3.9116718005937763E+000  7.1219661628393736E+000  1.7247772365983396E+000
       C3  1.7102289657729377E+000  1.7191893675745427E+000  4.8508327034713226E+000
       C4  5.3102205591776808E-001  3.7131815258571343E+000  1.1466952313593533E+001
       C5  2.7866913215865683E+000  8.2307211428205100E+000  9.4367773439768463E+000
       C6  3.9378102129082420E+000  8.0611799125519390E+000  2.8691791947853029E+000
       C7  1.6960174732775093E+000  2.6544949316053521E+000  3.6989827636965429E+000
       C8  5.2235424426955057E-001  2.7834089710072916E+000  1.0308670992208857E+001
       C9  3.8899975310687345E+000  7.7889366306455443E+000  1.0049648158743331E+001
       C10  2.8372986605960424E+000  8.5070648737629426E+000  3.4821016586458562E+000
       C11  5.7509928797732912E-001  3.0947269114202349E+000  3.1163591911909179E+000
       C12  1.6267527088143041E+000  2.3669262290893731E+000  9.6785982007298319E+000
       C13  3.8482145584532188E+000  6.9057825482569468E+000  1.1241989196992371E+001
       C14  2.8872631738362782E+000  9.4088197413033310E+000  4.6570983302583633E+000
       C15  5.8477063175342392E-001  3.9935366747152772E+000  1.9363847839215587E+000
       C16  1.6026178148282224E+000  1.4772281596127010E+000  8.4880915657298814E+000
       O1  3.9099992154488681E+000  9.3694339569322214E+000  7.6846674200160940E+000
       O2  2.7964812422032015E+000  6.8673675320137617E+000  1.1726651474788918E+000
       O3  6.0431307455096372E-001  1.4350209094141917E+000  5.4104086499891260E+000
       O4  1.6481318834155771E+000  4.0053855676153072E+000  1.1997553126242705E+001
       O5  1.6812584317291766E+000  9.6677343612683551E+000  7.9763655158199205E+000
       O6  5.0450448140533215E+000  6.6521775374376855E+000  1.3892740549040379E+000
       O7  2.8588600325560107E+000  1.2866855152643502E+000  5.1880771700242070E+000
       O8 -6.1259173566814973E-001  4.1386921584516330E+000  1.1836054160284105E+001
       O9  4.9746189131547371E+000  6.6504653227952426E+000  1.1779731734317764E+001
       O10  1.7678496645776263E+000  9.6696697541602052E+000  5.1990302750582922E+000
       O11 -5.4519520890295092E-001  4.2228016251700495E+000  1.3975410212371657E+000
       O12  2.7224710278410269E+000  1.2883586628168706E+000  7.9124203690309214E+000
       O13  2.7092908059787399E+000  6.4976274031731354E+000  1.1633976573667347E+001
       O14  4.0265468223706566E+000  9.8233106132364902E+000  5.0398361261156568E+000
       O15  1.7019601822164721E+000  4.4498755865835138E+000  1.5432017269234504E+000
       O16  4.8102245669749571E-001  9.9611362116129987E-001  8.1291288355801239E+000
       O17 -4.8524093920999223E-001  1.0105504060479197E+001  6.5106158627477155E+000
       O18  5.2800241178284169E-001  6.2542123734725052E+000  1.3090102313889052E+001
       O19  5.0370023348229784E+000  8.0968388238196409E-001  6.6517141211622084E+000
       O20  3.8864771952951700E+000  4.6247167271753256E+000  6.4349265227740593E-002
       O21 -1.0428899654651793E+000  7.3991331342263980E+000  6.7278577173293383E+000
       H13  4.8862503800462509E+000  7.8326258988769695E+000  7.1570226934652794E+000
       H14 -1.3928606574307689E+000  7.0485879407792913E+000  5.9009423583147624E+000
     &END COORD
     &KIND "Al"
       BASIS_SET "DZVP-MOLOPT-SR-GTH-q3"
       POTENTIAL "GTH-PBE-q3"
       &POTENTIAL
         2 1
           4.5000000000000001E-001 1 -7.5547612600000003E+000
         2
           4.8743529000000002E-001 2  6.9599383200000000E+000 -1.8888358400000000E+000
                                                               2.4384765900000001E+000
           5.6218948999999996E-001 1  1.8652985700000000E+000
         # Potential name: GTH-PBE-Q3 for element symbol: AL
         # Potential read from the potential filename: GTH_POTENTIALS
       &END POTENTIAL
     &END KIND
     &KIND "C"
       BASIS_SET "DZVP-MOLOPT-SR-GTH-q4"
       POTENTIAL "GTH-PBE-q4"
       &POTENTIAL
         2 2
           3.3847124000000001E-001 2 -8.8036739799999992E+000  1.3392108500000000E+000
         2
           3.0257574999999998E-001 1  9.6224866500000008E+000
           2.9150693999999999E-001 0
         # Potential name: GTH-PBE-Q4 for element symbol: C
         # Potential read from the potential filename: GTH_POTENTIALS
       &END POTENTIAL
     &END KIND
     &KIND "H"
       BASIS_SET "DZVP-MOLOPT-SR-GTH-q1"
       POTENTIAL "GTH-PBE-q1"
       &POTENTIAL
         1
           2.0000000000000001E-001 2 -4.1789004399999996E+000  7.2446330999999997E-001
         0
         # Potential name: GTH-PBE-Q1 for element symbol: H
         # Potential read from the potential filename: GTH_POTENTIALS
       &END POTENTIAL
     &END KIND
     &KIND "O"
       BASIS_SET "DZVP-MOLOPT-SR-GTH-q6"
       POTENTIAL "GTH-PBE-q6"
       &POTENTIAL
         2 4
           2.4455430000000000E-001 2 -1.6667214800000000E+001  2.4873113199999999E+000
         2
           2.2095592000000000E-001 1  1.8337458110000000E+001
           2.1133246999999999E-001 0
         # Potential name: GTH-PBE-Q6 for element symbol: O
         # Potential read from the potential filename: GTH_POTENTIALS
       &END POTENTIAL
     &END KIND
     &TOPOLOGY
       COORD_FILE_NAME widom_qmof-a9be673_mepoml-geo_opt_odac_H2O-PBE_e_min-opt_0005.cif
       COORD_FILE_FORMAT CIF
       NUMBER_OF_ATOMS 55
       MULTIPLE_UNIT_CELL 1 1 1
       &GENERATE
         REORDER F
       &END GENERATE
     &END TOPOLOGY
   &END SUBSYS
 &END FORCE_EVAL
