 # Version information for this restart file 
 # current date 2025-06-16 18:34:48.639
 # current working dir /scratch/x_satyanb/CCDC_NEW_2071_MOFs_ODAC_OPT/DFT_CALCULATIONS_with_CP2K_90MOFs/PBE_SOL_METHOD/OPTIMIZATION_MOF_ET/qmof-a9be673
 # Program compiled at                           Mon 02 Sep 2024 11:42:40 PM +03
 # Program compiled on                                                       ln2
 # Program compiled for                                                    local
 # Source code revision number                                       git:65cca6c
 &GLOBAL
   PRINT_LEVEL LOW
   PROJECT_NAME "qmof-a9be673"
   RUN_TYPE GEO_OPT
 &END GLOBAL
 &MOTION
   &GEO_OPT
     OPTIMIZER BFGS
     MAX_ITER 999
     MAX_DR  2.0000000000000001E-004
     MAX_FORCE  2.0000000000000001E-004
     RMS_DR  1.0000000000000000E-004
     RMS_FORCE  1.0000000000000000E-004
     STEP_START_VAL 210
     &BFGS
       TRUST_RADIUS  1.0000000000000001E-001
     &END BFGS
   &END GEO_OPT
   &PRINT
     &TRAJECTORY SILENT
       FILENAME geo_opt_traj
       FORMAT PDB
     &END TRAJECTORY
     &RESTART SILENT
       &EACH
         GEO_OPT 1
       &END EACH
     &END RESTART
   &END PRINT
 &END MOTION
 &FORCE_EVAL
   METHOD QS
   STRESS_TENSOR ANALYTICAL
   &DFT
     BASIS_SET_FILE_NAME BASIS_MOLOPT
     POTENTIAL_FILE_NAME GTH_POTENTIALS
     UKS F
     MULTIPLICITY 1
     CHARGE 0
     &SCF
       MAX_SCF 500
       EPS_SCF  9.9999999999999995E-007
       SCF_GUESS RESTART
       &OT T
         MINIMIZER DIIS
         SAFE_DIIS T
         PRECONDITIONER FULL_KINETIC
         ENERGY_GAP  1.0000000000000000E-003
       &END OT
       &OUTER_SCF T
         EPS_SCF  9.9999999999999995E-007
         MAX_SCF 500
       &END OUTER_SCF
     &END SCF
     &QS
       EPS_DEFAULT  9.9999999999999998E-013
       EXTRAPOLATION ASPC
       METHOD GPW
     &END QS
     &MGRID
       NGRIDS 4
       CUTOFF  4.5000000000000000E+002
       REL_CUTOFF  5.0000000000000000E+001
     &END MGRID
     &XC
       DENSITY_CUTOFF  1.0000000000000000E-010
       GRADIENT_CUTOFF  1.0000000000000000E-010
       TAU_CUTOFF  1.0000000000000000E-010
       &XC_FUNCTIONAL NO_SHORTCUT
         &PBE T
           PARAMETRIZATION PBESOL
         &END PBE
       &END XC_FUNCTIONAL
       &VDW_POTENTIAL
         POTENTIAL_TYPE PAIR_POTENTIAL
         &PAIR_POTENTIAL
           R_CUTOFF  1.2000000000000000E+001
           TYPE DFTD3
           PARAMETER_FILE_NAME dftd3.dat
           REFERENCE_FUNCTIONAL "PBE"
           EPS_CN  1.0000000000000000E-002
           CALCULATE_C9_TERM T
           LONG_RANGE_CORRECTION T
           SHORT_RANGE_CORRECTION T
         &END PAIR_POTENTIAL
       &END VDW_POTENTIAL
     &END XC
     &POISSON
       PERIODIC XYZ
     &END POISSON
   &END DFT
   &SUBSYS
     &CELL
       A  6.6895069999999999E+000  0.0000000000000000E+000  0.0000000000000000E+000
       B -2.1928534258088881E+000  1.0875341130098278E+001  0.0000000000000000E+000
       C  0.0000000000000000E+000  0.0000000000000000E+000  1.3167643000000002E+001
       MULTIPLE_UNIT_CELL 1 1 1
     &END CELL
     &COORD
       Al1  3.3484330832735978E+000  1.9320298588740469E-002  6.6087184749489030E+000
       Al2  5.6157092036444221E+000  5.4737713940223900E+000  1.6240144452323343E-002
       Al3  3.2717548453034513E-003  3.3494010753574478E-003  6.6007275355443786E+000
       Al4  2.2522830888567795E+000  5.4491670320183152E+000  1.3174878358614846E+001
       H1  1.8255513029844266E+000  8.1301819056336129E+000  9.9827963321620832E+000
       H2  4.9093837243435248E+000  8.3148661444602361E+000  3.3117777405653315E+000
       H3  2.6743022974406179E+000  2.7969042479008714E+000  3.2210093590416284E+000
       H4 -4.2328265291750633E-001  2.6397383307896813E+000  9.8222803342219382E+000
       H5  4.8989428413822509E+000  8.2109758930989951E+000  9.7799312496144264E+000
       H6  1.8405031850018099E+000  8.0438333527466899E+000  3.2673261651530781E+000
       H7 -4.0141438795142392E-001  2.6834156387229298E+000  3.3721662344641747E+000
       H8  2.6525280035691057E+000  2.8022304688725788E+000  9.9303100957314268E+000
       H9 -5.0659418549838264E-001  9.2311447855087039E+000  6.1152260003929628E+000
       H10  6.0385942023090411E-001  7.1988439226165752E+000  1.2920147832795674E+001
       H11  5.0317756625952477E+000  1.6525655484482487E+000  6.0850272539741672E+000
       H12  3.9527518687697505E+000  3.7922271968618513E+000 -4.0078481694788132E-001
       C1  2.8177852085868476E+000  9.3202328237518284E+000  8.4287145506567640E+000
       C2  3.9255454116750546E+000  7.0643287098985557E+000  1.8079963728623327E+000
       C3  1.6772415453385214E+000  1.6021701716561263E+000  4.7684324345942715E+000
       C4  5.8012042982246370E-001  3.8446130402793193E+000  1.1359791972005116E+001
       C5  2.8045597835623934E+000  8.4062929069063941E+000  9.5942326412707235E+000
       C6  3.9308415035214441E+000  7.9825987952620423E+000  2.9700069042509090E+000
       C7  1.6937735850567885E+000  2.5096386283154550E+000  3.5977870083734591E+000
       C8  5.5863529164895320E-001  2.9379361797487906E+000  1.0186863052962414E+001
       C9  3.9190402882234174E+000  7.9334541275422650E+000  1.0165197063606842E+001
       C10  2.8205692423509330E+000  8.3818285636045413E+000  3.6012353469442497E+000
       C11  5.8359180407951439E-001  2.9696899342172487E+000  3.0083198891035812E+000
       C12  1.6678039585195863E+000  2.4998191104573451E+000  9.5788368008616072E+000
       C13  3.8980159772764380E+000  7.0327007165662003E+000  1.1342219072055299E+001
       C14  2.8506190665533810E+000  9.2839959738205859E+000  4.7765604080395647E+000
       C15  6.0907778477460817E-001  3.8847816767846783E+000  1.8408432938220740E+000
       C16  1.6410796776300152E+000  1.5917371597226564E+000  8.4082105374188902E+000
       O1  3.9378967934587026E+000  9.5988469302268200E+000  7.9028973026324199E+000
       O2  2.8054920128353888E+000  6.7221659226171191E+000  1.3243351403821810E+000
       O3  5.5149504691524720E-001  1.2879382845351672E+000  5.2656035646757990E+000
       O4  1.7086595028570359E+000  4.1544662972302646E+000  1.1851341622464352E+001
       O5  1.6805205868313187E+000  9.7393497930364799E+000  8.0447382365997164E+000
       O6  5.0713806930607728E+000  6.7105058356301646E+000  1.3889011885762241E+000
       O7  2.8185361025339413E+000  1.2223620987390933E+000  5.1869761074660081E+000
       O8 -5.5869736926661495E-001  4.2251109094724297E+000  1.1782610172644105E+001
       O9  5.0358025437756790E+000  6.7376743162138846E+000  1.1831233150490148E+001
       O10  1.7156080041482611E+000  9.5878421157201572E+000  5.2710689882530355E+000
       O11 -5.2847157832458869E-001  4.2279568026979684E+000  1.3862344021739121E+000
       O12  2.7738945558476491E+000  1.2886220265346018E+000  7.9155739824850277E+000
       O13  2.7631678031581601E+000  6.6572950526285304E+000  1.1770949684743201E+001
       O14  3.9896297602686870E+000  9.6643181243870586E+000  5.1929496367286481E+000
       O15  1.7432307350158183E+000  4.2339255050243123E+000  1.3925377012662308E+000
       O16  5.1018077075514745E-001  1.2010982164602930E+000  7.9870324106369663E+000
       O17 -5.1103090549540942E-001  1.0080215030165538E+001  6.5793662110201065E+000
       O18  5.8921109419443729E-001  6.2514031149989249E+000 -3.5938848061952736E-003
       O19  5.0225507145270409E+000  8.1732051934583227E-001  6.5740358690489424E+000
       O20  3.9463306734859303E+000  4.6736737041233063E+000  1.3165769823874840E+001
       C17  1.2401948034991168E+000  9.2982778732584102E+000  1.3090059161103314E+001
       C18  7.6167510566515148E-002  9.3739196151624355E+000  1.2444384390783943E+001
       H13  2.1908144423814582E+000  9.3560104447292982E+000  1.2565675462239261E+001
       H14  1.2988873157781446E+000  9.1629562475025086E+000  9.9789517268853467E-001
       H15  2.1577341743197712E-002  9.5065327162804181E+000  1.1368508272403284E+001
       H16 -8.7540555736292691E-001  9.3035070613131499E+000  1.2965342315245231E+001
     &END COORD
     &KIND "Al"
       BASIS_SET "DZVP-MOLOPT-SR-GTH-q3"
       POTENTIAL "GTH-PBE-q3"
       &POTENTIAL
         2 1
           4.5000000000000001E-001 1 -7.5547612600000003E+000
         2
           4.8743529000000002E-001 2  6.9599383200000000E+000 -1.8888358400000000E+000
                                                               2.4384765900000001E+000
           5.6218948999999996E-001 1  1.8652985700000000E+000
         # Potential name: GTH-PBE-Q3 for element symbol: AL
         # Potential read from the potential filename: GTH_POTENTIALS
       &END POTENTIAL
     &END KIND
     &KIND "C"
       BASIS_SET "DZVP-MOLOPT-SR-GTH-q4"
       POTENTIAL "GTH-PBE-q4"
       &POTENTIAL
         2 2
           3.3847124000000001E-001 2 -8.8036739799999992E+000  1.3392108500000000E+000
         2
           3.0257574999999998E-001 1  9.6224866500000008E+000
           2.9150693999999999E-001 0
         # Potential name: GTH-PBE-Q4 for element symbol: C
         # Potential read from the potential filename: GTH_POTENTIALS
       &END POTENTIAL
     &END KIND
     &KIND "H"
       BASIS_SET "DZVP-MOLOPT-SR-GTH-q1"
       POTENTIAL "GTH-PBE-q1"
       &POTENTIAL
         1
           2.0000000000000001E-001 2 -4.1789004399999996E+000  7.2446330999999997E-001
         0
         # Potential name: GTH-PBE-Q1 for element symbol: H
         # Potential read from the potential filename: GTH_POTENTIALS
       &END POTENTIAL
     &END KIND
     &KIND "O"
       BASIS_SET "DZVP-MOLOPT-SR-GTH-q6"
       POTENTIAL "GTH-PBE-q6"
       &POTENTIAL
         2 4
           2.4455430000000000E-001 2 -1.6667214800000000E+001  2.4873113199999999E+000
         2
           2.2095592000000000E-001 1  1.8337458110000000E+001
           2.1133246999999999E-001 0
         # Potential name: GTH-PBE-Q6 for element symbol: O
         # Potential read from the potential filename: GTH_POTENTIALS
       &END POTENTIAL
     &END KIND
     &TOPOLOGY
       COORD_FILE_NAME qmof-a9be673_mepoml-geo_opt_odac_with_ethylene.cif
       COORD_FILE_FORMAT CIF
       NUMBER_OF_ATOMS 58
       MULTIPLE_UNIT_CELL 1 1 1
       &GENERATE
         REORDER F
       &END GENERATE
     &END TOPOLOGY
   &END SUBSYS
 &END FORCE_EVAL
